Route #1: 45 36 5 20 8 11 37 21
Route #2: 35 4 29 46 9 38 22 33 47
Route #3: 12 39 26 13 1 23
Route #4: 31 41 7
Route #5: 30 25 18 14 43 24 27 16 42 10 3
Route #6: 34 49 44 19 17 48 2 6
Route #7: 15 32 28 40
Cost 741
Time 0.096284
